p cnf 386 460
-1 -10 -16 21 22 0
-1 -10 -16 21 -22 0
-1 -10 -16 -21 23 0
-1 -10 -16 -21 -23 0
-12 -20 6 24 25 0
-12 -20 6 24 -25 0
-12 -20 6 -24 26 0
-12 -20 6 -24 -26 0
-2 -12 -17 27 28 0
-2 -12 -17 27 -28 0
-2 -12 -17 -27 29 0
-2 -12 -17 -27 -29 0
-19 12 -20 30 31 0
-19 12 -20 30 -31 0
-19 12 -20 -30 32 0
-19 12 -20 -30 -32 0
8 18 -16 33 34 0
8 18 -16 33 -34 0
8 18 -16 -33 35 0
8 18 -16 -33 -35 0
4 13 20 36 37 0
4 13 20 36 -37 0
4 13 20 -36 38 0
4 13 20 -36 -38 0
-19 -5 -16 39 40 0
-19 -5 -16 39 -40 0
-19 -5 -16 -39 41 0
-19 -5 -16 -39 -41 0
13 -7 -15 42 43 0
13 -7 -15 42 -43 0
13 -7 -15 -42 44 0
13 -7 -15 -42 -44 0
-7 -9 11 45 46 0
-7 -9 11 45 -46 0
-7 -9 11 -45 47 0
-7 -9 11 -45 -47 0
5 -16 -2 48 49 0
5 -16 -2 48 -49 0
5 -16 -2 -48 50 0
5 -16 -2 -48 -50 0
11 -12 -6 51 52 0
11 -12 -6 51 -52 0
11 -12 -6 -51 53 0
11 -12 -6 -51 -53 0
-20 17 15 54 55 0
-20 17 15 54 -55 0
-20 17 15 -54 56 0
-20 17 15 -54 -56 0
13 1 -17 57 58 0
13 1 -17 57 -58 0
13 1 -17 -57 59 0
13 1 -17 -57 -59 0
19 -15 -2 60 61 0
19 -15 -2 60 -61 0
19 -15 -2 -60 62 0
19 -15 -2 -60 -62 0
-15 -17 -4 63 64 0
-15 -17 -4 63 -64 0
-15 -17 -4 -63 65 0
-15 -17 -4 -63 -65 0
5 17 -3 66 67 0
5 17 -3 66 -67 0
5 17 -3 -66 68 0
5 17 -3 -66 -68 0
-3 -19 7 69 70 0
-3 -19 7 69 -70 0
-3 -19 7 -69 71 0
-3 -19 7 -69 -71 0
9 -20 -16 72 73 0
9 -20 -16 72 -73 0
9 -20 -16 -72 74 0
9 -20 -16 -72 -74 0
3 -7 -2 75 76 0
3 -7 -2 75 -76 0
3 -7 -2 -75 77 0
3 -7 -2 -75 -77 0
19 -3 -10 78 79 0
19 -3 -10 78 -79 0
19 -3 -10 -78 80 0
19 -3 -10 -78 -80 0
-6 1 -17 81 82 0
-6 1 -17 81 -82 0
-6 1 -17 -81 83 0
-6 1 -17 -81 -83 0
15 -4 3 84 85 0
15 -4 3 84 -85 0
15 -4 3 -84 86 0
15 -4 3 -84 -86 0
-15 -5 -17 87 88 0
-15 -5 -17 87 -88 0
-15 -5 -17 -87 89 0
-15 -5 -17 -87 -89 0
19 -18 -1 90 91 0
19 -18 -1 90 -91 0
19 -18 -1 -90 92 0
19 -18 -1 -90 -92 0
19 -8 -15 93 94 0
19 -8 -15 93 -94 0
19 -8 -15 -93 95 0
19 -8 -15 -93 -95 0
-19 -5 1 96 97 0
-19 -5 1 96 -97 0
-19 -5 1 -96 98 0
-19 -5 1 -96 -98 0
17 6 -20 99 100 0
17 6 -20 99 -100 0
17 6 -20 -99 101 0
17 6 -20 -99 -101 0
11 -17 7 102 103 0
11 -17 7 102 -103 0
11 -17 7 -102 104 0
11 -17 7 -102 -104 0
-4 -17 6 105 106 0
-4 -17 6 105 -106 0
-4 -17 6 -105 107 0
-4 -17 6 -105 -107 0
-18 1 11 108 109 0
-18 1 11 108 -109 0
-18 1 11 -108 110 0
-18 1 11 -108 -110 0
9 -1 8 111 112 0
9 -1 8 111 -112 0
9 -1 8 -111 113 0
9 -1 8 -111 -113 0
-13 -12 -14 114 115 0
-13 -12 -14 114 -115 0
-13 -12 -14 -114 116 0
-13 -12 -14 -114 -116 0
-6 -8 11 117 118 0
-6 -8 11 117 -118 0
-6 -8 11 -117 119 0
-6 -8 11 -117 -119 0
18 -17 -3 120 121 0
18 -17 -3 120 -121 0
18 -17 -3 -120 122 0
18 -17 -3 -120 -122 0
-7 15 -17 123 124 0
-7 15 -17 123 -124 0
-7 15 -17 -123 125 0
-7 15 -17 -123 -125 0
20 15 -1 126 127 0
20 15 -1 126 -127 0
20 15 -1 -126 128 0
20 15 -1 -126 -128 0
15 16 7 129 130 0
15 16 7 129 -130 0
15 16 7 -129 131 0
15 16 7 -129 -131 0
-2 13 11 132 133 0
-2 13 11 132 -133 0
-2 13 11 -132 134 0
-2 13 11 -132 -134 0
19 3 -1 135 136 0
19 3 -1 135 -136 0
19 3 -1 -135 137 0
19 3 -1 -135 -137 0
-17 11 -12 138 139 0
-17 11 -12 138 -139 0
-17 11 -12 -138 140 0
-17 11 -12 -138 -140 0
-13 -8 -14 141 142 0
-13 -8 -14 141 -142 0
-13 -8 -14 -141 143 0
-13 -8 -14 -141 -143 0
-9 -11 13 144 145 0
-9 -11 13 144 -145 0
-9 -11 13 -144 146 0
-9 -11 13 -144 -146 0
18 -20 -14 147 148 0
18 -20 -14 147 -148 0
18 -20 -14 -147 149 0
18 -20 -14 -147 -149 0
-12 -10 1 150 151 0
-12 -10 1 150 -151 0
-12 -10 1 -150 152 0
-12 -10 1 -150 -152 0
10 -7 17 153 154 0
10 -7 17 153 -154 0
10 -7 17 -153 155 0
10 -7 17 -153 -155 0
-1 13 12 156 157 0
-1 13 12 156 -157 0
-1 13 12 -156 158 0
-1 13 12 -156 -158 0
12 14 -18 159 160 0
12 14 -18 159 -160 0
12 14 -18 -159 161 0
12 14 -18 -159 -161 0
-5 -6 16 162 163 0
-5 -6 16 162 -163 0
-5 -6 16 -162 164 0
-5 -6 16 -162 -164 0
-17 -6 18 165 166 0
-17 -6 18 165 -166 0
-17 -6 18 -165 167 0
-17 -6 18 -165 -167 0
-3 8 -15 168 169 0
-3 8 -15 168 -169 0
-3 8 -15 -168 170 0
-3 8 -15 -168 -170 0
-3 11 -7 171 172 0
-3 11 -7 171 -172 0
-3 11 -7 -171 173 0
-3 11 -7 -171 -173 0
-1 17 -6 174 175 0
-1 17 -6 174 -175 0
-1 17 -6 -174 176 0
-1 17 -6 -174 -176 0
14 7 -20 177 178 0
14 7 -20 177 -178 0
14 7 -20 -177 179 0
14 7 -20 -177 -179 0
-16 -1 -18 180 181 0
-16 -1 -18 180 -181 0
-16 -1 -18 -180 182 0
-16 -1 -18 -180 -182 0
-1 -20 -4 183 184 0
-1 -20 -4 183 -184 0
-1 -20 -4 -183 185 0
-1 -20 -4 -183 -185 0
-9 -20 3 186 187 0
-9 -20 3 186 -187 0
-9 -20 3 -186 188 0
-9 -20 3 -186 -188 0
-7 -15 5 189 190 0
-7 -15 5 189 -190 0
-7 -15 5 -189 191 0
-7 -15 5 -189 -191 0
-7 -12 -6 192 193 0
-7 -12 -6 192 -193 0
-7 -12 -6 -192 194 0
-7 -12 -6 -192 -194 0
-11 -17 4 195 196 0
-11 -17 4 195 -196 0
-11 -17 4 -195 197 0
-11 -17 4 -195 -197 0
13 15 18 198 199 0
13 15 18 198 -199 0
13 15 18 -198 200 0
13 15 18 -198 -200 0
10 -11 1 201 202 0
10 -11 1 201 -202 0
10 -11 1 -201 203 0
10 -11 1 -201 -203 0
-19 3 1 204 205 0
-19 3 1 204 -205 0
-19 3 1 -204 206 0
-19 3 1 -204 -206 0
-18 -20 -13 207 208 0
-18 -20 -13 207 -208 0
-18 -20 -13 -207 209 0
-18 -20 -13 -207 -209 0
3 11 -8 210 211 0
3 11 -8 210 -211 0
3 11 -8 -210 212 0
3 11 -8 -210 -212 0
9 17 15 213 214 0
9 17 15 213 -214 0
9 17 15 -213 215 0
9 17 15 -213 -215 0
-13 -16 14 216 217 0
-13 -16 14 216 -217 0
-13 -16 14 -216 218 0
-13 -16 14 -216 -218 0
18 14 1 219 220 0
18 14 1 219 -220 0
18 14 1 -219 221 0
18 14 1 -219 -221 0
-6 -20 -1 222 223 0
-6 -20 -1 222 -223 0
-6 -20 -1 -222 224 0
-6 -20 -1 -222 -224 0
-20 -6 10 225 226 0
-20 -6 10 225 -226 0
-20 -6 10 -225 227 0
-20 -6 10 -225 -227 0
-14 -1 13 228 229 0
-14 -1 13 228 -229 0
-14 -1 13 -228 230 0
-14 -1 13 -228 -230 0
-9 7 8 231 232 0
-9 7 8 231 -232 0
-9 7 8 -231 233 0
-9 7 8 -231 -233 0
-12 -9 15 234 235 0
-12 -9 15 234 -235 0
-12 -9 15 -234 236 0
-12 -9 15 -234 -236 0
13 17 -19 237 238 0
13 17 -19 237 -238 0
13 17 -19 -237 239 0
13 17 -19 -237 -239 0
13 7 -3 240 241 0
13 7 -3 240 -241 0
13 7 -3 -240 242 0
13 7 -3 -240 -242 0
9 -19 -18 243 244 0
9 -19 -18 243 -244 0
9 -19 -18 -243 245 0
9 -19 -18 -243 -245 0
-10 3 18 246 247 0
-10 3 18 246 -247 0
-10 3 18 -246 248 0
-10 3 18 -246 -248 0
3 13 -18 249 250 0
3 13 -18 249 -250 0
3 13 -18 -249 251 0
3 13 -18 -249 -251 0
18 -5 -17 252 253 0
18 -5 -17 252 -253 0
18 -5 -17 -252 254 0
18 -5 -17 -252 -254 0
18 19 -17 255 256 0
18 19 -17 255 -256 0
18 19 -17 -255 257 0
18 19 -17 -255 -257 0
-10 -3 11 258 259 0
-10 -3 11 258 -259 0
-10 -3 11 -258 260 0
-10 -3 11 -258 -260 0
-1 -19 18 261 262 0
-1 -19 18 261 -262 0
-1 -19 18 -261 263 0
-1 -19 18 -261 -263 0
-1 -12 16 264 265 0
-1 -12 16 264 -265 0
-1 -12 16 -264 266 0
-1 -12 16 -264 -266 0
-16 -15 9 267 268 0
-16 -15 9 267 -268 0
-16 -15 9 -267 269 0
-16 -15 9 -267 -269 0
7 -18 19 270 271 0
7 -18 19 270 -271 0
7 -18 19 -270 272 0
7 -18 19 -270 -272 0
16 -8 5 273 274 0
16 -8 5 273 -274 0
16 -8 5 -273 275 0
16 -8 5 -273 -275 0
8 -19 -20 276 277 0
8 -19 -20 276 -277 0
8 -19 -20 -276 278 0
8 -19 -20 -276 -278 0
8 -17 11 279 280 0
8 -17 11 279 -280 0
8 -17 11 -279 281 0
8 -17 11 -279 -281 0
-6 11 2 282 283 0
-6 11 2 282 -283 0
-6 11 2 -282 284 0
-6 11 2 -282 -284 0
-15 -9 -20 285 286 0
-15 -9 -20 285 -286 0
-15 -9 -20 -285 287 0
-15 -9 -20 -285 -287 0
-15 -7 6 288 289 0
-15 -7 6 288 -289 0
-15 -7 6 -288 290 0
-15 -7 6 -288 -290 0
-1 20 -3 291 292 0
-1 20 -3 291 -292 0
-1 20 -3 -291 293 0
-1 20 -3 -291 -293 0
294 295 297 301 309 0
294 295 297 301 -309 0
294 295 297 -301 310 0
294 295 297 -301 -310 0
294 295 -297 302 311 0
294 295 -297 302 -311 0
294 295 -297 -302 312 0
294 295 -297 -302 -312 0
294 -295 298 303 313 0
294 -295 298 303 -313 0
294 -295 298 -303 314 0
294 -295 298 -303 -314 0
294 -295 -298 304 315 0
294 -295 -298 304 -315 0
294 -295 -298 -304 316 0
294 -295 -298 -304 -316 0
-294 296 299 305 317 0
-294 296 299 305 -317 0
-294 296 299 -305 318 0
-294 296 299 -305 -318 0
-294 296 -299 306 319 0
-294 296 -299 306 -319 0
-294 296 -299 -306 320 0
-294 296 -299 -306 -320 0
-294 -296 300 307 321 0
-294 -296 300 307 -321 0
-294 -296 300 -307 322 0
-294 -296 300 -307 -322 0
-294 -296 -300 308 323 0
-294 -296 -300 308 -323 0
-294 -296 -300 -308 324 0
-294 -296 -300 -308 -324 0
325 326 328 332 340 0
325 326 328 332 -340 0
325 326 328 -332 341 0
325 326 328 -332 -341 0
325 326 -328 333 342 0
325 326 -328 333 -342 0
325 326 -328 -333 343 0
325 326 -328 -333 -343 0
325 -326 329 334 344 0
325 -326 329 334 -344 0
325 -326 329 -334 345 0
325 -326 329 -334 -345 0
325 -326 -329 335 346 0
325 -326 -329 335 -346 0
325 -326 -329 -335 347 0
325 -326 -329 -335 -347 0
-325 327 330 336 348 0
-325 327 330 336 -348 0
-325 327 330 -336 349 0
-325 327 330 -336 -349 0
-325 327 -330 337 350 0
-325 327 -330 337 -350 0
-325 327 -330 -337 351 0
-325 327 -330 -337 -351 0
-325 -327 331 338 352 0
-325 -327 331 338 -352 0
-325 -327 331 -338 353 0
-325 -327 331 -338 -353 0
-325 -327 -331 339 354 0
-325 -327 -331 339 -354 0
-325 -327 -331 -339 355 0
-325 -327 -331 -339 -355 0
356 357 359 363 371 0
356 357 359 363 -371 0
356 357 359 -363 372 0
356 357 359 -363 -372 0
356 357 -359 364 373 0
356 357 -359 364 -373 0
356 357 -359 -364 374 0
356 357 -359 -364 -374 0
356 -357 360 365 375 0
356 -357 360 365 -375 0
356 -357 360 -365 376 0
356 -357 360 -365 -376 0
356 -357 -360 366 377 0
356 -357 -360 366 -377 0
356 -357 -360 -366 378 0
356 -357 -360 -366 -378 0
-356 358 361 367 379 0
-356 358 361 367 -379 0
-356 358 361 -367 380 0
-356 358 361 -367 -380 0
-356 358 -361 368 381 0
-356 358 -361 368 -381 0
-356 358 -361 -368 382 0
-356 358 -361 -368 -382 0
-356 -358 362 369 383 0
-356 -358 362 369 -383 0
-356 -358 362 -369 384 0
-356 -358 362 -369 -384 0
-356 -358 -362 370 385 0
-356 -358 -362 370 -385 0
-356 -358 -362 -370 386 0
-356 -358 -362 -370 -386 0

